c This is QMaxSAT 2017 based on 14.07
c This is Glucose 3.0
c This is MiniSat 2.2.0
c WARNING: for repeatability, setting FPU to use double precision
c card = mrwto, comp = 0, pmodel = 0, narr = 4, mct = 24, verb = 0
cr firstCPXsol 0 0 0
c top = 81479
c |  Number of variables:    1458                                             |
c |  Number of clauses:      33289                                            |
c |  Weight of hard clauses: 81479                                            |
c |  Number of soft clauses: 2760                                             |
c |  Number of unit soft clauses: 0                                           |
c |  Maximum Cardinality (by unit): 430240       (0           )               |
c last restart ## conflicts  :  0 96 
o 1107 | cpuTime 0.00846 s
c Sum of weights = 107560
c A number of soft clauses remained = 690
c MRWTO encoding for Pseudo-Boolean Constraints
c sizeMax=1107
c No.0 Divisor=11	generated by pow1
c No.1 Divisor=11	generated by pow1
c No.2 Divisor=11	generated by pow1
c p0= 11	p1= 11	p2= 11	
c number of digits = 4
c linkingVar[0].size = 11, linkingVar[1].size = 11, linkingVar[2].size = 10, linkingVar[3].size = 1, 
c Pseudo-Boolean Constraints: 14874 variables and 130972 clauses
c Sum of weights = 107560
c A number of soft clauses remained = 690
c MRWTO encoding for Pseudo-Boolean Constraints
c sizeMax=1107
c No.0 Divisor=11	generated by pow1
c No.1 Divisor=11	generated by pow1
c No.2 Divisor=11	generated by pow1
c p0= 11	p1= 11	p2= 11	
c number of digits = 4
c linkingVar[0].size = 11, linkingVar[1].size = 11, linkingVar[2].size = 10, linkingVar[3].size = 1, 
c Pseudo-Boolean Constraints: 14874 variables and 130972 clauses
c Sum of weights = 107560
c A number of soft clauses remained = 690
c MRWTO encoding for Pseudo-Boolean Constraints
c sizeMax=1107
c No.0 Divisor=11	generated by pow1
c No.1 Divisor=11	generated by pow1
c No.2 Divisor=11	generated by pow1
c p0= 11	p1= 11	p2= 11	
c number of digits = 4
c linkingVar[0].size = 11, linkingVar[1].size = 11, linkingVar[2].size = 10, linkingVar[3].size = 1, 
c Pseudo-Boolean Constraints: 14874 variables and 130972 clauses
c Sum of weights = 107560
c A number of soft clauses remained = 690
c MRWTO encoding for Pseudo-Boolean Constraints
c sizeMax=1107
c No.0 Divisor=11	generated by pow1
c No.1 Divisor=11	generated by pow1
c No.2 Divisor=11	generated by pow1
c p0= 11	p1= 11	p2= 11	
c number of digits = 4
c linkingVar[0].size = 11, linkingVar[1].size = 11, linkingVar[2].size = 10, linkingVar[3].size = 1, 
c Pseudo-Boolean Constraints: 14874 variables and 130972 clauses
c last restart ## conflicts  :  87 914 
o 1093 | cpuTime 0.591594 s
c last restart ## conflicts  :  389 1323 
o 1058 | cpuTime 1.08302 s
c last restart ## conflicts  :  489 1167 
o 1031 | cpuTime 1.67643 s
c last restart ## conflicts  :  76 1132 
o 1008 | cpuTime 1.82774 s
c last restart ## conflicts  :  1018 1224 
o 978 | cpuTime 2.64378 s
c last restart ## conflicts  :  141 1115 
o 918 | cpuTime 3.15957 s
c last restart ## conflicts  :  497 1191 
o 864 | cpuTime 5.24294 s
c last restart ## conflicts  :  840 992 
o 844 | cpuTime 10.4453 s
c last restart ## conflicts  :  490 1195 
o 834 | cpuTime 60.6012 s
c last restart ## conflicts  :  4625 1163 
o 831 | cpuTime 120.342 s
c last restart ## conflicts  :  4 847 
o 808 | cpuTime 140.021 s
c last restart ## conflicts  :  17 809 
o 802 | cpuTime 140.034 s
c last restart ## conflicts  :  200 1040 
o 787 | cpuTime 463.249 s
c last restart ## conflicts  :  41 869 
o 783 | cpuTime 537.758 s
c last restart ## conflicts  :  8563 1400 
o 752 | cpuTime 881.33 s
c last restart ## conflicts  :  2317 1017 
o 748 | cpuTime 1037.95 s
c last restart ## conflicts  :  7 1232 
o 744 | cpuTime 1447.15 s
s UNKNOWN
c Search is stopped by a limit (maybe time-limit)
cr positiVarArr: [ | 27(1->24) | 53(1->23) | 73(1->16) | 95(1->11) | 128(2->17) | 156(3->18) | 164(4->1) | 193(5->1) | 217(6->1) | 249(7->3) | 273(8->1) | 320(9->20) | 348(10->21) | 359(11->5) | 385(12->4) | 417(13->9) | 447(14->12) | 476(15->14) | 496(16->7) | 526(17->10) | 565(18->22) | 572(19->2) | 603(20->6) | 632(21->8) | 670(22->19) | 691(23->13) | 720(24->15) | ]
cr the 1-th chain: [ 1->24->15->14->12->4->1 ] (#non-depot=5) {#cumul.=6}
cr the 2-th chain: [ 1->23->13->9->20->6->1 ] (#non-depot=5) {#cumul.=11}
cr the 3-th chain: [ 1->16->7->3->18->22->19->2->17->10->21->8->1 ] (#non-depot=11) {#cumul.=22}
cr the 4-th chain: [ 1->11->5->1 ] (#non-depot=2) {#cumul.=24}
c Latest Answer = 0 by 18 loops
c restarts              : 44666
c conflicts             : 23579785       (6555 /sec)
c decisions             : 45949687       (0.00 % random) (12775 /sec)
c propagations          : 17573846375    (4885749 /sec)
c conflict literals     : 1499989183     (41.95 % deleted)
c Memory used           : 419.00 MB
c CPU time              : 3596.96 s
